p cnf 10 20
2 9 6 0
7 9 -5 0
-6 5 -8 0
-6 1 -7 0
-1 6 -10 0
-7 -9 -3 0
9 -1 -8 0
-8 -5 -2 0
7 8 -4 0
-4 -10 -2 0
-8 4 3 0
8 6 7 0
9 -6 2 0
-6 -10 -3 0
-8 -7 -3 0
-9 -6 4 0
9 2 10 0
-4 -8 -9 0
-9 3 -2 0
3 5 -1 0
